nNurses = 26;
nDays = 42;
extShiftWork = 1;
applyMinWorkTime = 1;
nNurseBioType = [1, 1, 1, 1, 1, 1, 1, 1, 1, 1, 1, 1, 1, 1, 1, 1, 1, 1, 2, 2, 2, 4, 4, 5, 6, 7];
fObjMinimiseSum = 0;
Case = Tabular;
% Case = BlackBox;

init_sols = 
  [| 3, 3, 3, 0, 2, 0, 2, 3, 0, 0, 1, 0, 2, 2, 2, 0, 0, 1, 1, 2, 0, 0, 2, 2, 3, 0, 1, 3, 0, 0, 1, 1, 2, 0, 2, 2, 3, 3, 0, 0, 0, 2
   | 1, 1, 1, 2, 0, 0, 1, 0, 3, 0, 2, 0, 0, 2, 2, 2, 2, 0, 1, 0, 3, 0, 0, 0, 0, 1, 2, 2, 2, 0, 0, 3, 0, 2, 3, 0, 2, 2, 2, 3, 0, 1
   | 0, 2, 0, 2, 2, 2, 0, 2, 0, 0, 1, 0, 1, 0, 1, 1, 1, 2, 0, 0, 1, 2, 3, 3, 0, 1, 3, 0, 0, 0, 1, 0, 0, 1, 1, 1, 0, 1, 1, 2, 0, 3
   | 0, 2, 0, 1, 0, 1, 0, 1, 2, 0, 0, 1, 1, 3, 0, 0, 1, 1, 2, 3, 0, 0, 1, 0, 2, 2, 2, 0, 0, 1, 1, 1, 1, 2, 0, 1, 1, 2, 0, 0, 0, 2
   | 1, 2, 0, 2, 2, 3, 0, 1, 0, 0, 2, 3, 0, 2, 3, 0, 1, 1, 0, 0, 1, 3, 0, 1, 1, 3, 3, 0, 0, 1, 1, 1, 1, 3, 0, 0, 0, 0, 3, 3, 3, 0
   | 2, 2, 3, 0, 2, 0, 1, 2, 2, 0, 0, 2, 3, 0, 0, 1, 2, 3, 0, 0, 2, 3, 0, 1, 2, 0, 0, 1, 1, 1, 2, 2, 0, 1, 0, 0, 1, 1, 0, 0, 3, 3
   | 0, 2, 2, 2, 0, 0, 3, 3, 0, 1, 0, 1, 2, 2, 0, 0, 2, 0, 2, 3, 0, 1, 1, 2, 0, 0, 1, 1, 0, 1, 2, 0, 0, 1, 1, 1, 1, 0, 1, 0, 2, 2
   | 2, 3, 0, 1, 3, 0, 2, 2, 3, 0, 0, 1, 1, 1, 0, 1, 3, 0, 0, 1, 0, 1, 1, 2, 3, 0, 0, 1, 1, 0, 0, 1, 1, 2, 3, 3, 0, 0, 1, 0, 2, 0
   | 0, 1, 1, 0, 0, 1, 0, 0, 1, 0, 1, 2, 2, 2, 3, 0, 0, 2, 2, 2, 2, 2, 0, 0, 3, 0, 2, 2, 0, 0, 1, 2, 2, 0, 1, 3, 3, 0, 0, 0, 1, 3
   | 2, 0, 3, 0, 1, 1, 1, 1, 1, 0, 0, 1, 3, 3, 0, 0, 0, 2, 2, 2, 0, 1, 1, 0, 1, 3, 3, 0, 0, 0, 2, 2, 2, 0, 3, 3, 0, 0, 1, 2, 0, 1
   | 3, 3, 0, 1, 0, 2, 2, 2, 0, 0, 2, 2, 2, 0, 1, 0, 0, 3, 0, 1, 0, 1, 2, 0, 0, 0, 1, 1, 1, 1, 0, 0, 1, 2, 0, 1, 2, 2, 0, 2, 0, 2
   | 0, 1, 1, 1, 1, 1, 0, 0, 3, 3, 0, 1, 0, 1, 1, 2, 0, 0, 1, 2, 0, 2, 0, 0, 2, 0, 2, 2, 2, 0, 1, 1, 0, 0, 1, 0, 0, 3, 3, 3, 0, 1
   | 2, 2, 0, 0, 1, 2, 2, 3, 0, 2, 3, 0, 0, 1, 2, 0, 2, 0, 0, 0, 2, 0, 2, 2, 2, 2, 2, 0, 0, 0, 0, 3, 3, 3, 0, 2, 3, 3, 0, 1, 1, 0
   | 3, 3, 0, 1, 0, 1, 2, 2, 0, 0, 3, 3, 3, 0, 2, 3, 0, 1, 0, 0, 1, 2, 2, 2, 0, 0, 1, 2, 3, 3, 0, 0, 2, 2, 0, 0, 1, 0, 1, 1, 2, 0
   | 0, 0, 2, 0, 1, 1, 3, 0, 0, 1, 1, 3, 3, 0, 1, 2, 2, 0, 0, 2, 3, 0, 0, 1, 1, 1, 1, 0, 0, 2, 2, 2, 0, 0, 2, 2, 0, 2, 2, 0, 1, 2
   | 0, 0, 1, 1, 1, 2, 0, 0, 1, 2, 0, 0, 3, 0, 1, 1, 1, 0, 1, 3, 0, 0, 3, 3, 0, 2, 3, 3, 3, 0, 0, 2, 3, 3, 3, 0, 2, 3, 0, 1, 2, 0
   | 2, 0, 2, 3, 0, 0, 2, 0, 2, 2, 2, 2, 2, 0, 0, 3, 3, 0, 0, 3, 0, 2, 2, 0, 1, 1, 1, 0, 0, 0, 2, 2, 0, 0, 1, 0, 2, 2, 2, 2, 3, 0
   | 1, 0, 0, 1, 1, 2, 0, 1, 0, 2, 2, 0, 0, 1, 2, 2, 0, 2, 0, 1, 1, 0, 0, 3, 0, 1, 0, 1, 1, 1, 2, 0, 0, 3, 0, 2, 0, 1, 0, 2, 3, 3
   | 1, 0, 2, 2, 0, 2, 0, 0, 2, 2, 2, 2, 0, 1, 1, 0, 0, 2, 2, 0, 1, 0, 0, 1, 2, 0, 1, 0, 2, 2, 0, 0, 1, 1, 2, 0, 1, 1, 3, 3, 0, 1
   | 1, 2, 0, 0, 2, 3, 0, 1, 1, 1, 3, 0, 0, 1, 3, 3, 0, 2, 3, 3, 0, 0, 1, 1, 0, 2, 0, 1, 1, 2, 0, 0, 2, 0, 1, 1, 2, 0, 2, 0, 2, 0
   | 2, 0, 2, 2, 2, 3, 0, 0, 1, 1, 1, 0, 2, 0, 0, 1, 0, 1, 3, 0, 2, 3, 3, 0, 0, 2, 3, 3, 0, 2, 3, 3, 0, 0, 2, 0, 0, 1, 2, 2, 0, 2
   | 0, 0, 3, 3, 3, 0, 1, 2, 2, 2, 0, 0, 1, 0, 0, 2, 3, 0, 1, 1, 2, 0, 0, 2, 2, 0, 2, 2, 3, 3, 0, 0, 1, 2, 2, 2, 0, 1, 1, 0, 1, 0
   | 1, 1, 1, 0, 3, 0, 1, 0, 0, 3, 3, 0, 1, 3, 0, 0, 1, 3, 3, 0, 2, 2, 3, 0, 0, 0, 0, 2, 2, 2, 0, 1, 3, 0, 2, 2, 0, 0, 0, 1, 1, 1
   | 0, 0, 2, 0, 0, 1, 1, 1, 2, 3, 0, 1, 1, 0, 0, 1, 0, 0, 2, 2, 3, 0, 0, 1, 1, 1, 2, 0, 2, 3, 3, 0, 0, 1, 3, 0, 2, 3, 0, 1, 2, 2
   | 0, 1, 0, 3, 0, 1, 1, 0, 0, 1, 1, 2, 2, 2, 0, 0, 1, 1, 1, 1, 0, 1, 1, 0, 0, 2, 3, 0, 2, 2, 3, 0, 0, 1, 0, 1, 0, 3, 0, 1, 1, 1
   | 1, 1, 1, 0, 0, 2, 3, 0, 1, 1, 0, 0, 3, 0, 2, 2, 2, 0, 0, 1, 1, 1, 2, 0, 1, 3, 3, 0, 1, 0, 0, 0, 2, 0, 3, 0, 1, 2, 2, 0, 0, 2
   |];
